c   #vars: 123   #clauses: 565   #literals: 1546
c 
p cnf 123 565
8 17 18 -57 0
-2 -3 0
-4 -5 0
-6 -7 0
38 39 44 45 0
44 45 92 93 0
52 -81 94 95 0
25 77 78 -120 0
-9 -10 0
-11 -12 0
-13 -14 0
-15 -16 0
-17 -18 0
-19 -20 0
-21 -22 0
-23 -24 0
52 81 82 -94 0
-26 -27 0
-28 -29 0
-30 -31 0
-32 -33 0
-34 -35 0
-36 -37 0
-38 -39 0
-40 -41 0
-42 -43 0
-44 -45 0
-46 -47 0
-48 -49 0
-50 -51 0
-26 61 77 78 0
-53 -54 0
-55 -56 0
-57 -58 0
-59 -60 0
15 16 64 -108 0
19 20 122 123 0
6 7 19 20 0
-62 -63 0
11 12 67 -101 0
-65 -66 0
36 37 70 -92 0
-68 -69 0
50 51 87 -112 0
-71 -72 0
-73 -74 0
-75 -76 0
-77 -78 0
-79 -80 0
-81 -82 0
-83 -84 0
-85 -86 0
-96 98 110 111 0
-88 -89 0
-90 -91 0
-92 -93 0
-94 -95 0
-96 -97 0
-17 105 116 117 0
-99 -100 0
-101 -102 0
-103 -104 0
42 43 88 89 0
79 80 88 89 0
1 -50 57 58 0
92 93 107 -116 0
-108 -109 0
-110 -111 0
-112 -113 0
-114 -115 0
-116 -117 0
2 3 85 86 0
-118 -119 0
-120 -121 0
6 7 88 89 0
-122 -123 0
8 -13 17 18 0
-1 -5 0
120 121 122 123 0
8 13 14 -57 0
-1 -51 0
50 51 68 69 0
8 13 14 -17 0
-1 -58 0
-2 -11 0
-3 -12 0
4 5 9 10 0
-2 -38 0
-3 -39 0
-15 64 108 109 0
-2 -85 0
-3 -86 0
-2 -99 0
-3 -100 0
8 -13 57 58 0
-2 -120 0
-3 -121 0
-11 67 101 102 0
-4 -6 0
-5 -7 0
53 54 83 84 0
-4 -9 0
-5 -10 0
-4 -11 0
-5 -12 0
-19 65 66 106 0
-4 -30 0
-5 -31 0
55 56 94 95 0
36 37 -59 70 0
-5 -67 0
4 5 11 12 0
-6 -19 0
-7 -20 0
36 37 55 56 0
-6 -26 0
-7 -27 0
-6 -38 0
-7 -39 0
62 63 73 74 0
-6 -40 0
-7 -41 0
75 76 92 93 0
-6 -88 0
-7 -89 0
42 43 110 111 0
-6 -90 0
-7 -91 0
9 10 32 33 0
44 45 103 104 0
68 69 110 111 0
30 31 101 102 0
25 77 78 -112 0
-8 -14 0
17 18 48 49 0
25 112 113 -120 0
-8 -18 0
81 82 114 115 0
25 -77 112 113 0
-8 -58 0
8 -17 57 58 0
-9 -32 0
-10 -33 0
38 39 99 100 0
-9 -44 0
-10 -45 0
48 49 73 74 0
-9 -50 0
-10 -51 0
32 33 71 72 0
15 16 48 49 0
59 60 70 -92 0
-12 -67 0
-11 -68 0
-12 -69 0
-11 -103 0
-12 -104 0
55 56 -65 106 0
-77 92 93 107 0
-12 -105 0
-13 -21 0
-14 -22 0
-13 -36 0
-14 -37 0
25 -112 120 121 0
-13 -77 0
-14 -78 0
26 27 79 80 0
-15 -19 0
-16 -20 0
11 12 -17 105 0
-15 -48 0
-16 -49 0
34 35 81 82 0
-19 61 77 78 0
-16 -52 0
30 31 108 109 0
-4 12 67 0
-16 -64 0
-15 -75 0
-16 -76 0
114 115 120 121 0
-15 -120 0
-16 -121 0
-17 -36 0
-18 -37 0
13 14 21 22 0
-17 -44 0
-18 -45 0
1 4 5 -50 0
-17 -48 0
-18 -49 0
19 20 -26 61 0
77 78 107 -116 0
-18 -105 0
44 45 118 119 0
15 16 64 -103 0
-20 -61 0
28 29 77 78 0
-19 -75 0
-20 -76 0
-20 -106 0
90 91 114 115 0
-19 -112 0
-20 -113 0
6 7 40 41 0
-19 -122 0
-20 -123 0
-59 70 92 93 0
114 115 116 117 0
-21 -30 0
-22 -31 0
15 16 120 121 0
-21 -42 0
-22 -43 0
30 31 85 86 0
-21 -118 0
-22 -119 0
28 29 96 97 0
-23 -48 0
-24 -49 0
-23 -53 0
-24 -54 0
-36 70 92 93 0
-23 -57 0
-24 -58 0
17 18 44 45 0
-23 -62 0
-24 -63 0
48 49 79 80 0
-23 -99 0
-24 -100 0
77 78 99 100 0
-15 52 81 82 0
-25 -78 0
65 66 83 84 0
15 16 52 -94 0
-25 -113 0
48 49 112 113 0
15 16 52 -81 0
-25 -121 0
17 18 36 37 0
-26 -40 0
-27 -41 0
30 31 83 84 0
64 103 104 -108 0
-27 -61 0
13 14 36 37 0
-26 -68 0
-27 -69 0
62 63 90 91 0
-26 -79 0
-27 -80 0
103 104 122 123 0
-11 105 116 117 0
-27 -98 0
21 22 42 43 0
-28 -77 0
-29 -78 0
65 66 120 121 0
-26 98 110 111 0
-29 -87 0
-28 -96 0
-29 -97 0
-28 -108 0
-29 -109 0
4 5 30 31 0
-28 -116 0
-29 -117 0
-30 -83 0
-31 -84 0
2 3 11 12 0
-30 -85 0
-31 -86 0
-30 -88 0
-31 -89 0
32 33 122 123 0
-30 -101 0
-31 -102 0
32 33 116 117 0
-30 -108 0
-31 -109 0
92 93 108 109 0
-32 -34 0
-33 -35 0
-4 67 101 102 0
-32 -71 0
-33 -72 0
15 16 75 76 0
-32 -73 0
-33 -74 0
81 82 83 84 0
-32 -81 0
-33 -82 0
62 63 122 123 0
-32 -116 0
-33 -117 0
6 7 38 39 0
-32 -122 0
-33 -123 0
94 95 101 102 0
9 10 44 45 0
-34 -53 0
-35 -54 0
53 54 75 76 0
-34 -55 0
-35 -56 0
11 12 103 104 0
-34 -81 0
-35 -82 0
23 24 57 58 0
-36 -55 0
-37 -56 0
46 47 71 72 0
-36 -59 0
-37 -60 0
1 -4 57 58 0
-28 50 51 87 0
-37 -70 0
2 3 38 39 0
-36 -81 0
-37 -82 0
26 27 40 41 0
-38 -44 0
-39 -45 0
-15 52 94 95 0
-38 -99 0
-39 -100 0
50 51 114 115 0
-38 -112 0
-39 -113 0
73 74 85 86 0
-40 -68 0
-41 -69 0
46 47 73 74 0
-40 -83 0
-41 -84 0
44 45 85 86 0
-40 -108 0
-41 -109 0
46 47 101 102 0
-40 -116 0
-41 -117 0
-42 -88 0
-43 -89 0
9 10 50 51 0
-42 -101 0
-43 -102 0
26 27 98 -110 0
-42 -110 0
-43 -111 0
44 45 68 69 0
-44 -68 0
-45 -69 0
2 3 120 121 0
-44 -85 0
-45 -86 0
92 93 94 95 0
-44 -92 0
-45 -93 0
32 33 34 35 0
-44 -103 0
-45 -104 0
1 4 5 -57 0
-44 -118 0
-45 -119 0
-46 -71 0
-47 -72 0
40 41 116 117 0
-46 -73 0
-47 -74 0
28 29 108 109 0
-46 -88 0
-47 -89 0
-46 -101 0
-47 -102 0
75 76 118 119 0
-48 -73 0
-49 -74 0
53 54 90 91 0
-48 -79 0
-49 -80 0
19 20 -55 106 0
-48 -112 0
-49 -113 0
6 7 26 27 0
-48 -122 0
-49 -123 0
23 24 53 54 0
-50 -68 0
-51 -69 0
19 20 112 113 0
96 97 98 -110 0
-51 -87 0
34 35 53 54 0
-50 -114 0
-51 -115 0
36 37 59 60 0
26 27 61 -77 0
-52 -82 0
30 31 88 89 0
-19 26 27 61 0
-52 -95 0
-53 -75 0
-54 -76 0
34 35 55 56 0
-53 -83 0
-54 -84 0
40 41 108 109 0
-53 -90 0
-54 -91 0
57 58 96 97 0
-55 -94 0
-56 -95 0
25 -77 120 121 0
-55 -101 0
-56 -102 0
71 72 120 121 0
-56 -106 0
23 24 62 63 0
-57 -75 0
-58 -76 0
6 7 90 91 0
-57 -96 0
-58 -97 0
46 47 88 89 0
28 29 87 -112 0
-60 -70 0
-59 -90 0
-60 -91 0
65 66 68 69 0
-59 -99 0
-60 -100 0
-77 107 116 117 0
-15 64 103 104 0
-61 -78 0
-62 -73 0
-63 -74 0
-62 -90 0
-63 -91 0
23 24 48 49 0
2 3 99 100 0
1 50 51 -57 0
19 20 -65 106 0
-62 -122 0
-63 -123 0
19 20 75 76 0
4 5 67 -101 0
-64 -104 0
42 43 101 102 0
5 -11 67 0
-64 -109 0
79 80 96 97 0
-65 -68 0
-66 -69 0
71 72 79 80 0
-65 -83 0
-66 -84 0
-66 -106 0
-19 55 56 106 0
-65 -118 0
-66 -119 0
101 102 110 111 0
-65 -120 0
-66 -121 0
38 39 112 113 0
-36 59 60 70 0
-67 -102 0
26 27 -96 98 0
-68 -110 0
-69 -111 0
68 69 120 121 0
-68 -120 0
-69 -121 0
73 74 108 109 0
28 29 -50 87 0
-70 -93 0
40 41 68 69 0
-71 -79 0
-72 -80 0
32 33 81 82 0
-71 -120 0
-72 -121 0
59 60 99 100 0
-73 -85 0
-74 -86 0
57 58 75 76 0
-73 -108 0
-74 -109 0
13 14 77 78 0
-75 -92 0
-76 -93 0
-55 65 66 106 0
-75 -118 0
-76 -119 0
36 37 81 82 0
-77 -99 0
-78 -100 0
11 12 68 69 0
-78 -107 0
59 60 90 91 0
-79 -88 0
-80 -89 0
26 27 68 69 0
-79 -96 0
-80 -97 0
40 41 83 84 0
-81 -83 0
-82 -84 0
65 66 118 119 0
-81 -114 0
-82 -115 0
-92 107 116 117 0
1 -4 50 51 0
-50 87 112 113 0
-26 96 97 98 0
-87 -113 0
-28 87 112 113 0
-88 -99 0
-89 -100 0
11 12 105 -116 0
-90 -114 0
-91 -115 0
94 95 118 119 0
-92 -94 0
-93 -95 0
48 49 122 123 0
-93 -107 0
94 95 110 111 0
-92 -108 0
-93 -109 0
88 89 99 100 0
-94 -101 0
-95 -102 0
-94 -110 0
-95 -111 0
28 29 116 117 0
-94 -118 0
-95 -119 0
32 33 73 74 0
17 18 105 -116 0
-97 -98 0
15 16 19 20 0
-11 17 18 105 0
-98 -111 0
55 56 101 102 0
-101 -110 0
-102 -111 0
64 -103 108 109 0
-103 -122 0
-104 -123 0
19 20 61 -77 0
77 78 -92 107 0
-105 -117 0
21 22 30 31 0
-107 -117 0
21 22 118 119 0
-114 -116 0
-115 -117 0
23 24 99 100 0
-114 -120 0
-115 -121 0
4 5 6 7 0
-120 -122 0
-121 -123 0
